10J3M/DAT/10J3MNNR-14.dat
10 3
14.6379 23.2555
34.5761 18.6877
20.6458 37.2579
19.2838 15.9397
29.4691 16.2965
28.3205 21.6231
17.2289 16.0882
13.3605 12.8032
21.698 42.1144
39.9325 41.0461
245.1123